(declare-rel fail ())
(declare-rel inv2 (Int Int Int Int Int Int))
(declare-var A Int)
(declare-var B Int)
(declare-var C Int)
(declare-var D Int)
(declare-var E Int)
(declare-var F Int)
(declare-var G Int)
(declare-var H Int)
(declare-var I Int)
(rule (=> (and (= G 0)
         (= D A)
         (= I C)
         (= C (* 2 B))
         (= A B)
         (= C (* 2 B))
         (= A B)
         (> B 0)
         (>= 200 B))
    (inv2 G D I C B A)))
(rule (let ((a!1 (and (inv2 G D I C B A)
                (= E (+ 1 G))
                (= H (ite (< G A) (+ D 1) D))
                (= F (ite (< G A) I (+ I 2))))))
  (=> a!1 (inv2 E H F C B A))))
(rule (let ((a!1 (and (inv2 G D I C B A) (>= D C) (not (= I (* 2 G))))))
  (=> a!1 fail)))
(query fail)

